c 142_win_checker.cnf
c
c field = 142
c formula set type = win_checker
c
p cnf 5 80
274 
276 
278 
280 
-272 
275 
277 
279 
281 
-273 
274 
276 
278 
280 
-284 
275 
277 
279 
281 
-285 
276 
278 
280 
284 
-274 
277 
279 
281 
285 
-275 
276 
278 
280 
284 
-286 
277 
279 
281 
285 
-287 
278 
280 
284 
286 
-276 
279 
281 
285 
287 
-277 
278 
280 
284 
286 
-288 
279 
281 
285 
287 
-289 
280 
284 
286 
288 
-278 
281 
285 
287 
289 
-279 
280 
284 
286 
288 
-290 
281 
285 
287 
289 
-291 
284 
286 
288 
290 
-280 
285 
287 
289 
291 
-281 
284 
286 
288 
290 
-292 
285 
287 
289 
291 
-293 
162 
192 
222 
252 
-132 
163 
193 
223 
253 
-133 
162 
192 
222 
252 
-312 
163 
193 
223 
253 
-313 
192 
222 
252 
312 
-162 
193 
223 
253 
313 
-163 
192 
222 
252 
312 
-342 
193 
223 
253 
313 
-343 
222 
252 
312 
342 
-192 
223 
253 
313 
343 
-193 
222 
252 
312 
342 
-372 
223 
253 
313 
343 
-373 
252 
312 
342 
372 
-222 
253 
313 
343 
373 
-223 
252 
312 
342 
372 
-402 
253 
313 
343 
373 
-403 
312 
342 
372 
402 
-252 
313 
343 
373 
403 
-253 
312 
342 
372 
402 
-432 
313 
343 
373 
403 
-433 
154 
186 
218 
250 
-122 
155 
187 
219 
251 
-123 
154 
186 
218 
250 
-314 
155 
187 
219 
251 
-315 
186 
218 
250 
314 
-154 
187 
219 
251 
315 
-155 
186 
218 
250 
314 
-346 
187 
219 
251 
315 
-347 
218 
250 
314 
346 
-186 
219 
251 
315 
347 
-187 
218 
250 
314 
346 
-378 
219 
251 
315 
347 
-379 
250 
314 
346 
378 
-218 
251 
315 
347 
379 
-219 
250 
314 
346 
378 
-410 
251 
315 
347 
379 
-411 
314 
346 
378 
410 
-250 
315 
347 
379 
411 
-251 
314 
346 
378 
410 
-442 
315 
347 
379 
411 
-443 
170 
198 
226 
254 
-142 
171 
199 
227 
255 
-143 
170 
198 
226 
254 
-310 
171 
199 
227 
255 
-311 
198 
226 
254 
310 
-170 
199 
227 
255 
311 
-171 
198 
226 
254 
310 
-338 
199 
227 
255 
311 
-339 
226 
254 
310 
338 
-198 
227 
255 
311 
339 
-199 
226 
254 
310 
338 
-366 
227 
255 
311 
339 
-367 
254 
310 
338 
366 
-226 
255 
311 
339 
367 
-227 
254 
310 
338 
366 
-394 
255 
311 
339 
367 
-395 
310 
338 
366 
394 
-254 
311 
339 
367 
395 
-255 
310 
338 
366 
394 
-422 
311 
339 
367 
395 
-423 
